Te8 W4
1.0
        3.5185995102         0.0000000000         0.0000000000
        0.0000000000         6.3023362160         0.0000000000
        0.0000000000         0.0000000000        30.0115528107
   Te    W
    4    2
Direct
     0.000000000         0.204200104         0.330120146
     0.500000000         0.697269678         0.309623778
     0.000000000         0.857740223         0.447946340
     0.500000000         0.352027744         0.427414060
     0.500000000         0.955995917         0.382366538
     0.000000000         0.600375235         0.375174135
